# Solution for model FSG
# Objective value = 8.1124308443812265e+02
x_0_1 0
x_0_2 0
x_0_3 1
x_0_4 1
x_0_5 1
x_0_6 0
x_0_7 0
x_0_8 0
x_1_2 0
x_1_3 0
x_1_4 0
x_1_5 0
x_1_6 0
x_1_7 1
x_1_8 0
x_2_1 0
x_2_3 0
x_2_4 0
x_2_5 0
x_2_6 1
x_2_7 0
x_2_8 0
x_3_1 1
x_3_2 0
x_3_4 0
x_3_5 0
x_3_6 0
x_3_7 0
x_3_8 0
x_4_1 0
x_4_2 0
x_4_3 0
x_4_5 0
x_4_6 0
x_4_7 0
x_4_8 1
x_5_1 0
x_5_2 1
x_5_3 0
x_5_4 0
x_5_6 0
x_5_7 0
x_5_8 0
U_1_1 0
U_1_2 1
U_1_3 0
U_2_1 0
U_2_2 1
U_2_3 0
U_3_1 0
U_3_2 1
U_3_3 0
U_4_1 0
U_4_2 0
U_4_3 1
U_5_1 1
U_5_2 0
U_5_3 0
U_6_1 0
U_6_2 0
U_6_3 1
U_7_1 0
U_7_2 0
U_7_3 1
U_8_1 0
U_8_2 0
U_8_3 1
TBar_0 0
TBar_1 30
TBar_2 30
TBar_3 15
TBar_4 30
TBar_5 7.9785804668647060e+00
TBar_6 3.7021419533135294e+01
TBar_7 37.9200084964106
TBar_8 3.2420950226667209e+01
y_0_1_1 0
y_0_1_2 0
y_0_1_3 0
y_0_1_4 0
y_0_1_5 0
y_0_2_1 0
y_0_2_2 0
y_0_2_3 0
y_0_2_4 0
y_0_2_5 0
y_0_3_1 0
y_0_3_2 0
y_0_3_3 0
y_0_3_4 0
y_0_3_5 0
y_0_4_1 0
y_0_4_2 0
y_0_4_3 0
y_0_4_4 0
y_0_4_5 0
y_0_5_1 0
y_0_5_2 0
y_0_5_3 0
y_0_5_4 0
y_0_5_5 0
y_0_6_1 0
y_0_6_2 0
y_0_6_3 0
y_0_6_4 0
y_0_6_5 0
y_0_7_1 0
y_0_7_2 0
y_0_7_3 0
y_0_7_4 0
y_0_7_5 0
y_0_8_1 0
y_0_8_2 0
y_0_8_3 0
y_0_8_4 0
y_0_8_5 0
y_1_2_1 0
y_1_2_2 0
y_1_2_3 0
y_1_2_4 0
y_1_2_5 0
y_1_3_1 0
y_1_3_2 0
y_1_3_3 0
y_1_3_4 0
y_1_3_5 0
y_1_4_1 0
y_1_4_2 0
y_1_4_3 0
y_1_4_4 0
y_1_4_5 0
y_1_5_1 0
y_1_5_2 0
y_1_5_3 0
y_1_5_4 0
y_1_5_5 0
y_1_6_1 0
y_1_6_2 0
y_1_6_3 0
y_1_6_4 0
y_1_6_5 0
y_1_7_1 0
y_1_7_2 0
y_1_7_3 0
y_1_7_4 0
y_1_7_5 0
y_1_8_1 0
y_1_8_2 0
y_1_8_3 0
y_1_8_4 0
y_1_8_5 0
y_2_1_1 0
y_2_1_2 0
y_2_1_3 0
y_2_1_4 0
y_2_1_5 0
y_2_3_1 0
y_2_3_2 0
y_2_3_3 0
y_2_3_4 0
y_2_3_5 0
y_2_4_1 0
y_2_4_2 0
y_2_4_3 0
y_2_4_4 0
y_2_4_5 0
y_2_5_1 0
y_2_5_2 0
y_2_5_3 0
y_2_5_4 0
y_2_5_5 0
y_2_6_1 0
y_2_6_2 0
y_2_6_3 0
y_2_6_4 0
y_2_6_5 0
y_2_7_1 0
y_2_7_2 0
y_2_7_3 0
y_2_7_4 0
y_2_7_5 0
y_2_8_1 0
y_2_8_2 0
y_2_8_3 0
y_2_8_4 0
y_2_8_5 0
y_3_1_1 0
y_3_1_2 0
y_3_1_3 0
y_3_1_4 0
y_3_1_5 0
y_3_2_1 0
y_3_2_2 0
y_3_2_3 0
y_3_2_4 0
y_3_2_5 0
y_3_4_1 0
y_3_4_2 0
y_3_4_3 0
y_3_4_4 0
y_3_4_5 0
y_3_5_1 0
y_3_5_2 0
y_3_5_3 0
y_3_5_4 0
y_3_5_5 0
y_3_6_1 0
y_3_6_2 0
y_3_6_3 0
y_3_6_4 0
y_3_6_5 0
y_3_7_1 0
y_3_7_2 0
y_3_7_3 0
y_3_7_4 0
y_3_7_5 0
y_3_8_1 0
y_3_8_2 0
y_3_8_3 0
y_3_8_4 0
y_3_8_5 0
y_4_1_1 0
y_4_1_2 0
y_4_1_3 0
y_4_1_4 0
y_4_1_5 0
y_4_2_1 0
y_4_2_2 0
y_4_2_3 0
y_4_2_4 0
y_4_2_5 0
y_4_3_1 0
y_4_3_2 0
y_4_3_3 0
y_4_3_4 0
y_4_3_5 0
y_4_5_1 0
y_4_5_2 0
y_4_5_3 0
y_4_5_4 0
y_4_5_5 0
y_4_6_1 0
y_4_6_2 0
y_4_6_3 0
y_4_6_4 0
y_4_6_5 0
y_4_7_1 0
y_4_7_2 0
y_4_7_3 0
y_4_7_4 0
y_4_7_5 0
y_4_8_1 0
y_4_8_2 0
y_4_8_3 0
y_4_8_4 0
y_4_8_5 0
y_5_1_1 0
y_5_1_2 0
y_5_1_3 0
y_5_1_4 0
y_5_1_5 0
y_5_2_1 0
y_5_2_2 0
y_5_2_3 0
y_5_2_4 0
y_5_2_5 0
y_5_3_1 0
y_5_3_2 0
y_5_3_3 0
y_5_3_4 0
y_5_3_5 0
y_5_4_1 0
y_5_4_2 0
y_5_4_3 0
y_5_4_4 0
y_5_4_5 0
y_5_6_1 0
y_5_6_2 0
y_5_6_3 0
y_5_6_4 0
y_5_6_5 0
y_5_7_1 0
y_5_7_2 0
y_5_7_3 0
y_5_7_4 0
y_5_7_5 0
y_5_8_1 0
y_5_8_2 0
y_5_8_3 0
y_5_8_4 0
y_5_8_5 0
Q_0_1 0
Q_0_2 0
Q_0_3 0
Q_0_4 0
Q_0_5 0
Q_1_1 157.155
Q_1_2 157.755
Q_1_3 1.6601500000000001e+02
Q_1_4 156.985
Q_1_5 168.73
Q_2_1 1.6764000000000055e+02
Q_2_2 1.7122500000000056e+02
Q_2_3 1.7334500000000060e+02
Q_2_4 1.7802000000000058e+02
Q_2_5 1.7521000000000058e+02
Q_3_1 9.3029999999999347e+01
Q_3_2 8.7774999999999338e+01
Q_3_3 9.7169999999999348e+01
Q_3_4 8.5994999999999351e+01
Q_3_5 9.7739999999999341e+01
Q_4_1 108.515
Q_4_2 96.92
Q_4_3 1.0664500000000001e+02
Q_4_4 103.745
Q_4_5 1.0049000000000001e+02
Q_5_1 6.1379999999999782e+01
Q_5_2 6.1359999999999779e+01
Q_5_3 6.5619999999999777e+01
Q_5_4 6.6059999999999775e+01
Q_5_5 6.4259999999999778e+01
Q_6_1 1.6764000000000055e+02
Q_6_2 1.7122500000000056e+02
Q_6_3 1.7334500000000060e+02
Q_6_4 1.7802000000000058e+02
Q_6_5 1.7521000000000058e+02
Q_7_1 157.155
Q_7_2 157.755
Q_7_3 1.6601500000000001e+02
Q_7_4 156.985
Q_7_5 168.73
Q_8_1 108.515
Q_8_2 96.92
Q_8_3 1.0664500000000001e+02
Q_8_4 103.745
Q_8_5 1.0049000000000001e+02
R_6_1 1.7640000000000555e+01
R_6_2 2.1225000000000563e+01
R_6_3 2.3345000000000596e+01
R_6_4 2.8020000000000579e+01
R_6_5 2.5210000000000576e+01
R_7_1 7.155
R_7_2 7.755
R_7_3 16.015
R_7_4 6.985
R_7_5 18.73
R_8_1 0
R_8_2 0
R_8_3 0
R_8_4 0
R_8_5 0
L_1_1 4.05
L_1_2 6.15
L_1_3 6.995
L_1_4 5.92
L_1_5 4.86
L_2_1 5.14
L_2_2 12.2
L_2_3 8.99
L_2_4 13.25
L_2_5 11.68
L_3_1 6.515
L_3_2 4.74
L_3_3 2.9
L_3_4 4.1
L_3_5 5.04
L_4_1 0
L_4_2 0
L_4_3 0
L_4_4 0
L_4_5 0
L_5_1 1.5840000000000002e+01
L_5_2 25.985
L_5_3 25.86
L_5_4 2.5799999999999997e+01
L_5_5 26.155
rho_1_1 1
rho_1_2 1
rho_1_3 1
rho_1_4 1
rho_1_5 1
rho_2_1 1
rho_2_2 1
rho_2_3 1
rho_2_4 1
rho_2_5 1
rho_3_1 0
rho_3_2 0
rho_3_3 0
rho_3_4 0
rho_3_5 0
rho_4_1 0
rho_4_2 0
rho_4_3 0
rho_4_4 0
rho_4_5 0
rho_5_1 0
rho_5_2 0
rho_5_3 0
rho_5_4 0
rho_5_5 0
lambd_1_1 0
lambd_1_2 0
lambd_1_3 0
lambd_1_4 0
lambd_1_5 0
lambd_2_1 0
lambd_2_2 0
lambd_2_3 0
lambd_2_4 0
lambd_2_5 0
lambd_3_1 0
lambd_3_2 0
lambd_3_3 0
lambd_3_4 0
lambd_3_5 0
lambd_4_1 0
lambd_4_2 0
lambd_4_3 0
lambd_4_4 0
lambd_4_5 0
lambd_5_1 0
lambd_5_2 0
lambd_5_3 0
lambd_5_4 0
lambd_5_5 0
alpha_1_1 0
alpha_1_2 0
alpha_1_3 0
alpha_1_4 0
alpha_1_5 0
alpha_2_1 0
alpha_2_2 0
alpha_2_3 0
alpha_2_4 0
alpha_2_5 0
alpha_3_1 0
alpha_3_2 0
alpha_3_3 0
alpha_3_4 0
alpha_3_5 0
alpha_4_1 0
alpha_4_2 0
alpha_4_3 0
alpha_4_4 0
alpha_4_5 0
alpha_5_1 0
alpha_5_2 0
alpha_5_3 0
alpha_5_4 0
alpha_5_5 0
